c :: WCTIME=0.486236
c :: command line :: ./optimal-finder cvc-add7to3.cnf -minimal
c :: version :: 160
c :: reference filename :: cvc-add7to3.cnf
c :: reference encoding :: 68
c i 3 4 6 9 10 12 2 14 25 28 0
c :: inputs :: 3 4 6 9 10 12 2 14 25 28 
c :: clause minimization :: 0
c :: assignments analyzed :: 38691
c :: reference encoding :: variables :: 27 :: clauses :: 68
c :: optimal encoding :: variables :: 10 :: clauses :: 254
c :: optimal minimal encoding :: 254
p cnf 28 254
-3 -4 28 25 0
-3 -6 28 25 0
-9 -3 28 25 0
-3 -10 28 25 0
-3 -12 28 25 0
-3 -2 28 25 0
-3 14 28 25 0
-9 -10 28 25 0
-9 -4 28 25 0
-9 -6 28 25 0
-9 -12 28 25 0
-9 -2 28 25 0
-9 14 28 25 0
-28 -25 3 6 0
-28 -25 4 6 0
-28 -25 9 6 0
-28 -25 10 6 0
-28 -25 12 6 0
-28 -25 2 6 0
-28 -25 -14 6 0
-2 14 28 25 0
-2 -12 28 25 0
-2 -10 28 25 0
-6 14 28 25 0
-28 -25 3 -14 0
-12 14 28 25 0
-6 -12 28 25 0
-2 -6 28 25 0
-6 -4 28 25 0
-4 -10 28 25 0
-12 -4 28 25 0
-2 -4 28 25 0
14 -4 28 25 0
-28 -25 10 -14 0
-28 -25 4 -14 0
-28 -25 10 12 0
-28 -25 10 3 0
-28 -25 4 12 0
-28 -25 10 4 0
-28 -25 3 4 0
14 -10 28 25 0
-10 -12 28 25 0
-6 -10 28 25 0
-28 -25 -14 12 0
-28 -25 9 12 0
-28 -25 10 9 0
-28 -25 9 4 0
-28 -25 3 12 0
-28 -25 2 12 0
-28 -25 2 10 0
-28 -25 2 4 0
-28 -25 3 9 0
-28 -25 2 9 0
-28 -25 9 -14 0
-28 -25 2 3 0
-28 -25 2 -14 0
-28 10 3 -14 12 0
-28 10 4 -14 12 0
-28 10 -14 12 6 0
-28 10 -14 9 12 0
-28 10 -14 2 12 0
-28 10 -14 3 9 0
-28 10 -14 9 4 0
-28 10 -14 9 6 0
-28 10 -14 9 2 0
-28 10 3 9 4 0
-28 10 3 9 6 0
-28 10 3 9 12 0
-28 2 10 3 9 0
-28 10 9 12 4 0
-28 10 9 12 6 0
-28 10 9 12 2 0
-28 10 3 6 4 0
-28 10 3 12 4 0
-28 10 3 2 4 0
-28 10 -14 3 4 0
-28 10 4 6 12 0
-28 10 4 2 12 0
-28 10 4 6 -14 0
-28 10 4 2 -14 0
-28 2 10 3 -14 0
-28 10 -14 2 6 0
-28 2 4 -14 3 0
-28 2 -14 4 6 0
-28 2 4 9 -14 0
-28 2 4 -14 12 0
-4 28 -6 -2 -3 0
-4 28 -6 -9 -2 0
-4 28 -6 -2 -10 0
-4 28 -6 -2 -12 0
-4 28 -6 -2 14 0
-28 10 3 12 2 0
-4 28 -6 14 -9 0
-28 2 3 -14 12 0
-28 2 -14 6 12 0
-28 2 -14 9 12 0
-28 2 -14 9 6 0
-28 2 3 4 12 0
-6 -12 28 -10 -2 0
-6 -9 28 -3 -4 0
-6 -3 28 -10 -4 0
-6 -3 28 -2 14 0
-6 14 28 -3 -9 0
-6 14 28 -3 -4 0
-6 -3 28 -10 -2 0
-6 -9 28 -2 -10 0
-6 -10 28 -2 14 0
-3 28 -4 -10 -2 0
-9 28 -4 -10 -2 0
-12 -4 28 -10 -2 0
14 -4 28 -10 -2 0
-6 14 28 -12 -4 0
-6 -4 28 -10 -12 0
-12 -3 28 -10 -2 0
-12 -9 28 -10 -2 0
-12 14 28 -10 -2 0
-6 -12 28 -2 -3 0
-6 -12 28 -9 -2 0
-6 -12 28 -2 14 0
-12 -4 28 -2 -3 0
-12 -4 28 -9 -2 0
-12 14 28 -2 -4 0
-12 -4 28 -9 -3 0
-6 -12 28 -9 -3 0
-9 28 14 -2 -3 0
-6 -12 28 -3 -4 0
-28 2 3 9 4 0
-28 2 4 9 6 0
-28 2 10 9 4 0
-28 2 4 9 12 0
-9 28 -4 -3 -2 0
-28 10 4 2 6 0
-28 2 10 9 6 0
-28 2 3 9 12 0
-28 2 12 9 6 0
-28 12 3 9 4 0
-28 12 3 9 6 0
-28 3 -14 9 12 0
-12 14 28 -2 -3 0
-12 14 28 -9 -2 0
-3 28 14 -10 -2 0
-9 28 14 -10 -2 0
-6 14 28 -9 -2 0
14 -4 28 -2 -3 0
14 -4 28 -9 -2 0
-6 -3 28 -10 -12 0
-12 -4 28 -10 -3 0
-28 2 10 6 12 0
-3 28 14 -10 -12 0
-28 2 4 6 12 0
-28 -14 12 9 4 0
-28 -14 12 9 6 0
-12 -9 28 -3 14 0
-6 14 28 -12 -3 0
-12 14 28 -4 -3 0
-28 2 3 6 12 0
-12 -9 28 -2 -3 0
-6 -12 28 -9 -4 0
-28 2 3 6 10 0
-6 -4 28 -10 14 0
-6 -3 28 -10 14 0
-6 14 28 -10 -12 0
14 -4 28 -10 -12 0
-6 -12 28 -9 14 0
-28 4 -14 9 6 0
-12 -4 28 -9 14 0
-9 -3 28 -2 -10 0
-9 -3 28 -10 -12 0
-6 -9 28 -3 -2 0
14 -4 28 -9 -3 0
-12 -4 28 -9 -10 0
-9 28 -4 -10 -3 0
-28 3 -14 6 12 0
14 -4 28 -10 -3 0
-28 3 -14 6 10 0
-6 -12 28 -9 -10 0
-6 -4 28 -9 -10 0
-28 3 -14 9 6 0
-6 -9 28 -3 -10 0
-28 3 -14 6 4 0
-28 2 3 9 6 0
-28 4 12 6 -14 0
-9 28 14 -12 -10 0
-6 14 28 -9 -10 0
-28 12 3 6 4 0
14 -4 28 -9 -10 0
-9 -3 28 -10 14 0
-28 3 10 6 12 0
-28 3 -14 12 4 0
-28 3 4 9 6 0
-28 4 -14 9 3 0
-28 10 4 9 6 0
-28 4 12 9 6 0
-28 2 3 6 4 0
-28 2 3 6 -14 0
-28 2 3 9 -14 0
-4 25 -6 -9 -2 -3 -10 0
-4 -12 25 -9 -2 -3 -10 0
-4 -9 25 -2 -3 -10 14 0
-25 6 2 10 3 9 4 0
-25 6 2 10 9 4 12 0
-25 6 2 10 9 4 -14 0
-6 -9 25 -2 -3 -10 14 0
-9 -2 25 -3 -10 14 -12 0
-12 -9 25 -2 -3 14 -4 0
-12 -9 25 -2 -3 14 -6 0
-6 -12 25 -9 -3 -10 -4 0
-9 -2 25 -3 -10 -6 -12 0
-6 -12 25 -9 -3 -10 14 0
-12 -9 25 -2 -3 -4 -6 0
-6 -12 25 -9 -3 14 -4 0
-12 -9 25 -3 -10 14 -4 0
-25 10 3 9 4 -14 12 0
-25 10 3 9 -14 12 6 0
-25 10 3 9 -14 12 2 0
-25 2 3 4 -14 12 6 0
-25 2 9 4 -14 12 6 0
-25 2 4 -14 12 6 10 0
-25 10 3 9 4 -14 6 0
-25 2 10 3 9 4 -14 0
-12 -9 25 -2 -10 14 -4 0
-25 2 10 4 -14 6 3 0
-25 2 10 3 4 -14 12 0
-6 -12 25 -2 -3 -10 -4 0
-6 -12 25 -2 -3 14 -4 0
-25 10 3 9 4 12 6 0
-25 2 10 3 9 4 12 0
-6 -12 25 -3 -10 14 -4 0
-12 -9 25 -4 -10 14 -6 0
-6 -12 25 -2 -10 14 -4 0
-25 2 10 4 -14 12 9 0
-12 -9 25 -4 -10 -2 -6 0
-12 -9 25 -4 14 -2 -6 0
-25 10 3 9 12 6 2 0
-25 10 3 9 -14 6 2 0
-9 -2 25 -10 14 -4 -6 0
-2 25 -3 -9 14 -4 -6 0
-6 -2 25 -3 -10 14 -4 0
-6 -12 25 -3 -10 14 -2 0
-12 -9 25 -6 -10 14 -2 0
-25 2 10 3 -14 12 6 0
-25 2 10 4 12 6 3 0
-9 -3 25 -10 14 -6 -4 0
-12 -2 25 -3 -4 -10 14 0
-25 2 3 9 -14 12 6 0
-25 2 4 -14 12 9 3 0
-25 2 4 12 6 9 3 0
-25 2 4 -14 6 3 9 0
-25 2 10 9 -14 12 6 0
-25 10 3 4 -14 6 12 0
-25 10 9 4 -14 12 6 0
-25 3 9 4 -14 12 6 0
-4 -6 -12 -9 -2 -3 -10 14 0
6 2 10 3 9 4 -14 12 0
